unsat
(:added-eqs                   6374
 :arith-eq-adapter            46
 :arith-bound-propagations-lp 2408
 :arith-branch                2762
 :arith-conflicts             3073
 :arith-cube-calls            1267
 :arith-diseq                 3502
 :arith-fixed-eqs             2253
 :arith-gcd-calls             5086
 :arith-gcd-conflict          13
 :arith-gomory-cuts           4025
 :arith-hnf-calls             11
 :arith-lower                 122982
 :arith-make-feasible         30090
 :arith-max-columns           108
 :arith-max-rows              63
 :arith-nla-propagate-bounds  4
 :arith-offset-eqs            1753
 :arith-patches               5073
 :arith-patches-success       4
 :arith-upper                 132679
 :binary-propagations         153851
 :conflicts                   3076
 :decisions                   17301
 :del-clause                  7300
 :final-checks                5086
 :max-memory                  22.74
 :memory                      17.96
 :minimized-lits              268
 :mk-bool-var                 7050
 :mk-clause                   8223
 :mk-clause-binary            5125
 :num-allocs                  2158026734
 :num-checks                  1
 :propagations                236864
 :restarts                    25
 :rlimit-count                1522334
 :time                        2.79
 :total-time                  2.79)
